c FILE: random-n100-d40-d-n100-d40-1.col

p edge 100 1980
e 1 2
e 1 3
e 1 4
e 1 6
e 1 10
e 1 14
e 1 15
e 1 17
e 1 19
e 1 20
e 1 23
e 1 24
e 1 25
e 1 26
e 1 35
e 1 36
e 1 37
e 1 38
e 1 39
e 1 41
e 1 45
e 1 46
e 1 47
e 1 48
e 1 50
e 1 53
e 1 55
e 1 56
e 1 66
e 1 68
e 1 70
e 1 72
e 1 82
e 1 84
e 1 86
e 1 87
e 1 88
e 1 94
e 1 96
e 1 98
e 1 100
e 2 3
e 2 4
e 2 5
e 2 7
e 2 12
e 2 13
e 2 15
e 2 18
e 2 21
e 2 22
e 2 23
e 2 26
e 2 28
e 2 29
e 2 32
e 2 36
e 2 39
e 2 43
e 2 45
e 2 46
e 2 47
e 2 49
e 2 51
e 2 52
e 2 53
e 2 55
e 2 56
e 2 61
e 2 63
e 2 65
e 2 69
e 2 70
e 2 75
e 2 77
e 2 78
e 2 82
e 2 87
e 2 89
e 2 90
e 2 91
e 2 92
e 2 93
e 2 95
e 2 98
e 3 7
e 3 8
e 3 9
e 3 10
e 3 11
e 3 12
e 3 13
e 3 14
e 3 15
e 3 16
e 3 24
e 3 26
e 3 29
e 3 31
e 3 35
e 3 38
e 3 39
e 3 40
e 3 41
e 3 45
e 3 48
e 3 50
e 3 51
e 3 54
e 3 56
e 3 57
e 3 58
e 3 59
e 3 60
e 3 62
e 3 64
e 3 65
e 3 67
e 3 68
e 3 73
e 3 74
e 3 77
e 3 81
e 3 84
e 3 85
e 3 86
e 3 88
e 3 92
e 3 93
e 4 5
e 4 6
e 4 7
e 4 8
e 4 9
e 4 10
e 4 14
e 4 16
e 4 18
e 4 25
e 4 26
e 4 31
e 4 32
e 4 39
e 4 45
e 4 51
e 4 54
e 4 55
e 4 56
e 4 60
e 4 61
e 4 64
e 4 65
e 4 67
e 4 68
e 4 70
e 4 71
e 4 72
e 4 73
e 4 75
e 4 80
e 4 81
e 4 83
e 4 85
e 4 86
e 4 87
e 4 88
e 4 91
e 4 98
e 5 6
e 5 12
e 5 14
e 5 15
e 5 17
e 5 19
e 5 21
e 5 22
e 5 28
e 5 32
e 5 37
e 5 39
e 5 40
e 5 42
e 5 44
e 5 49
e 5 50
e 5 54
e 5 55
e 5 57
e 5 58
e 5 59
e 5 63
e 5 69
e 5 75
e 5 80
e 5 83
e 5 88
e 5 89
e 5 90
e 5 92
e 5 94
e 5 97
e 6 7
e 6 8
e 6 10
e 6 13
e 6 22
e 6 23
e 6 25
e 6 29
e 6 30
e 6 31
e 6 32
e 6 37
e 6 42
e 6 44
e 6 47
e 6 52
e 6 53
e 6 54
e 6 58
e 6 60
e 6 61
e 6 62
e 6 64
e 6 67
e 6 73
e 6 74
e 6 77
e 6 81
e 6 82
e 6 84
e 6 91
e 6 92
e 6 93
e 6 94
e 6 95
e 6 96
e 6 97
e 6 98
e 7 9
e 7 11
e 7 12
e 7 13
e 7 16
e 7 18
e 7 19
e 7 25
e 7 28
e 7 29
e 7 32
e 7 39
e 7 42
e 7 46
e 7 47
e 7 50
e 7 52
e 7 53
e 7 59
e 7 65
e 7 67
e 7 68
e 7 71
e 7 72
e 7 74
e 7 75
e 7 76
e 7 77
e 7 78
e 7 79
e 7 80
e 7 81
e 7 86
e 7 87
e 7 91
e 7 94
e 7 95
e 7 100
e 8 9
e 8 10
e 8 11
e 8 13
e 8 14
e 8 15
e 8 16
e 8 17
e 8 18
e 8 21
e 8 22
e 8 25
e 8 28
e 8 29
e 8 31
e 8 37
e 8 38
e 8 39
e 8 43
e 8 44
e 8 48
e 8 49
e 8 53
e 8 55
e 8 56
e 8 59
e 8 61
e 8 62
e 8 65
e 8 66
e 8 68
e 8 71
e 8 73
e 8 84
e 8 85
e 8 86
e 8 89
e 8 90
e 8 91
e 8 92
e 8 94
e 8 99
e 9 13
e 9 14
e 9 19
e 9 28
e 9 31
e 9 33
e 9 34
e 9 38
e 9 41
e 9 44
e 9 45
e 9 46
e 9 47
e 9 51
e 9 54
e 9 55
e 9 57
e 9 61
e 9 62
e 9 67
e 9 68
e 9 69
e 9 70
e 9 74
e 9 76
e 9 77
e 9 78
e 9 84
e 9 86
e 9 87
e 9 89
e 9 90
e 9 91
e 9 92
e 9 96
e 9 97
e 9 100
e 10 17
e 10 18
e 10 19
e 10 23
e 10 24
e 10 25
e 10 26
e 10 28
e 10 33
e 10 34
e 10 36
e 10 38
e 10 40
e 10 45
e 10 46
e 10 47
e 10 48
e 10 51
e 10 59
e 10 61
e 10 63
e 10 64
e 10 65
e 10 66
e 10 72
e 10 73
e 10 79
e 10 80
e 10 81
e 10 82
e 10 85
e 10 86
e 10 90
e 10 92
e 11 13
e 11 15
e 11 17
e 11 18
e 11 19
e 11 22
e 11 24
e 11 25
e 11 26
e 11 29
e 11 35
e 11 38
e 11 39
e 11 41
e 11 43
e 11 44
e 11 46
e 11 47
e 11 50
e 11 53
e 11 55
e 11 60
e 11 62
e 11 63
e 11 64
e 11 67
e 11 75
e 11 80
e 11 84
e 11 87
e 11 88
e 11 91
e 12 15
e 12 16
e 12 18
e 12 21
e 12 22
e 12 26
e 12 31
e 12 34
e 12 36
e 12 37
e 12 39
e 12 42
e 12 48
e 12 56
e 12 63
e 12 65
e 12 67
e 12 69
e 12 70
e 12 73
e 12 76
e 12 78
e 12 81
e 12 85
e 12 88
e 12 90
e 12 93
e 12 96
e 13 14
e 13 15
e 13 22
e 13 26
e 13 27
e 13 30
e 13 36
e 13 38
e 13 41
e 13 42
e 13 45
e 13 51
e 13 54
e 13 55
e 13 57
e 13 61
e 13 62
e 13 64
e 13 66
e 13 67
e 13 68
e 13 69
e 13 70
e 13 72
e 13 73
e 13 74
e 13 79
e 13 82
e 13 87
e 13 89
e 13 90
e 13 96
e 13 97
e 13 100
e 14 15
e 14 16
e 14 17
e 14 18
e 14 20
e 14 22
e 14 23
e 14 26
e 14 28
e 14 29
e 14 30
e 14 35
e 14 36
e 14 37
e 14 41
e 14 42
e 14 45
e 14 48
e 14 49
e 14 50
e 14 57
e 14 58
e 14 60
e 14 64
e 14 65
e 14 70
e 14 73
e 14 74
e 14 78
e 14 81
e 14 83
e 14 89
e 14 90
e 14 91
e 14 94
e 14 95
e 14 99
e 14 100
e 15 17
e 15 18
e 15 19
e 15 20
e 15 21
e 15 22
e 15 24
e 15 25
e 15 28
e 15 29
e 15 30
e 15 32
e 15 34
e 15 38
e 15 41
e 15 43
e 15 50
e 15 55
e 15 58
e 15 60
e 15 63
e 15 67
e 15 70
e 15 72
e 15 74
e 15 83
e 15 91
e 15 92
e 15 95
e 15 96
e 15 97
e 15 99
e 16 18
e 16 20
e 16 21
e 16 23
e 16 27
e 16 29
e 16 32
e 16 35
e 16 36
e 16 37
e 16 41
e 16 44
e 16 45
e 16 49
e 16 54
e 16 59
e 16 62
e 16 67
e 16 68
e 16 70
e 16 75
e 16 79
e 16 80
e 16 82
e 16 84
e 16 86
e 16 87
e 16 88
e 16 89
e 16 91
e 16 92
e 16 96
e 16 97
e 16 99
e 16 100
e 17 18
e 17 19
e 17 21
e 17 24
e 17 25
e 17 28
e 17 31
e 17 33
e 17 34
e 17 35
e 17 36
e 17 37
e 17 39
e 17 40
e 17 44
e 17 45
e 17 46
e 17 47
e 17 48
e 17 53
e 17 58
e 17 59
e 17 60
e 17 61
e 17 64
e 17 66
e 17 70
e 17 72
e 17 76
e 17 77
e 17 80
e 17 82
e 17 85
e 17 90
e 17 100
e 18 20
e 18 21
e 18 24
e 18 26
e 18 32
e 18 38
e 18 40
e 18 41
e 18 42
e 18 44
e 18 45
e 18 47
e 18 48
e 18 49
e 18 54
e 18 56
e 18 60
e 18 62
e 18 65
e 18 66
e 18 71
e 18 75
e 18 78
e 18 79
e 18 80
e 18 81
e 18 82
e 18 83
e 18 84
e 18 86
e 18 90
e 18 91
e 18 94
e 19 21
e 19 23
e 19 28
e 19 29
e 19 30
e 19 31
e 19 32
e 19 34
e 19 39
e 19 42
e 19 43
e 19 45
e 19 47
e 19 48
e 19 52
e 19 53
e 19 56
e 19 57
e 19 58
e 19 60
e 19 61
e 19 62
e 19 63
e 19 65
e 19 70
e 19 77
e 19 78
e 19 81
e 19 85
e 19 86
e 19 88
e 19 89
e 19 90
e 19 95
e 19 96
e 19 97
e 19 100
e 20 21
e 20 23
e 20 28
e 20 29
e 20 30
e 20 31
e 20 34
e 20 39
e 20 43
e 20 45
e 20 49
e 20 51
e 20 52
e 20 58
e 20 59
e 20 60
e 20 64
e 20 66
e 20 69
e 20 71
e 20 72
e 20 75
e 20 76
e 20 78
e 20 80
e 20 84
e 20 86
e 20 88
e 20 93
e 20 100
e 21 22
e 21 23
e 21 25
e 21 28
e 21 29
e 21 31
e 21 33
e 21 34
e 21 37
e 21 44
e 21 47
e 21 49
e 21 53
e 21 62
e 21 64
e 21 69
e 21 72
e 21 76
e 21 82
e 21 84
e 21 85
e 21 89
e 21 90
e 21 92
e 21 93
e 21 96
e 22 26
e 22 27
e 22 28
e 22 30
e 22 31
e 22 33
e 22 34
e 22 35
e 22 38
e 22 39
e 22 41
e 22 43
e 22 47
e 22 48
e 22 49
e 22 50
e 22 51
e 22 52
e 22 54
e 22 60
e 22 65
e 22 69
e 22 74
e 22 75
e 22 80
e 22 84
e 22 87
e 22 89
e 22 93
e 22 94
e 22 96
e 22 100
e 23 26
e 23 27
e 23 28
e 23 34
e 23 35
e 23 36
e 23 38
e 23 39
e 23 43
e 23 45
e 23 46
e 23 47
e 23 51
e 23 53
e 23 57
e 23 58
e 23 59
e 23 60
e 23 61
e 23 62
e 23 64
e 23 66
e 23 69
e 23 70
e 23 75
e 23 78
e 23 80
e 23 83
e 23 95
e 23 97
e 24 25
e 24 26
e 24 29
e 24 30
e 24 31
e 24 33
e 24 38
e 24 40
e 24 41
e 24 43
e 24 44
e 24 46
e 24 52
e 24 53
e 24 56
e 24 58
e 24 60
e 24 63
e 24 65
e 24 68
e 24 71
e 24 72
e 24 73
e 24 83
e 24 84
e 24 86
e 24 87
e 24 89
e 24 91
e 24 93
e 24 94
e 24 99
e 25 26
e 25 28
e 25 29
e 25 30
e 25 32
e 25 33
e 25 34
e 25 37
e 25 38
e 25 41
e 25 45
e 25 48
e 25 50
e 25 52
e 25 53
e 25 54
e 25 58
e 25 60
e 25 61
e 25 64
e 25 65
e 25 68
e 25 73
e 25 74
e 25 75
e 25 85
e 25 86
e 25 87
e 25 88
e 25 94
e 25 96
e 25 98
e 25 99
e 25 100
e 26 34
e 26 40
e 26 42
e 26 47
e 26 50
e 26 59
e 26 60
e 26 66
e 26 68
e 26 69
e 26 71
e 26 73
e 26 74
e 26 75
e 26 76
e 26 78
e 26 81
e 26 82
e 26 83
e 26 84
e 26 86
e 26 88
e 26 90
e 26 91
e 26 93
e 26 94
e 26 95
e 26 99
e 27 30
e 27 33
e 27 35
e 27 36
e 27 38
e 27 39
e 27 40
e 27 42
e 27 43
e 27 44
e 27 46
e 27 50
e 27 56
e 27 57
e 27 58
e 27 59
e 27 60
e 27 62
e 27 65
e 27 72
e 27 73
e 27 77
e 27 84
e 27 87
e 27 89
e 27 91
e 27 94
e 27 98
e 27 99
e 28 32
e 28 34
e 28 40
e 28 43
e 28 45
e 28 46
e 28 47
e 28 49
e 28 54
e 28 57
e 28 58
e 28 62
e 28 63
e 28 66
e 28 71
e 28 72
e 28 76
e 28 80
e 28 82
e 28 84
e 28 85
e 28 87
e 28 88
e 28 91
e 28 93
e 28 96
e 28 98
e 28 99
e 29 31
e 29 34
e 29 35
e 29 40
e 29 41
e 29 43
e 29 45
e 29 46
e 29 48
e 29 50
e 29 51
e 29 55
e 29 58
e 29 60
e 29 62
e 29 64
e 29 67
e 29 69
e 29 72
e 29 74
e 29 75
e 29 81
e 29 85
e 29 86
e 29 88
e 29 89
e 29 92
e 29 93
e 29 94
e 29 95
e 29 97
e 29 99
e 30 31
e 30 36
e 30 37
e 30 38
e 30 39
e 30 42
e 30 48
e 30 51
e 30 53
e 30 58
e 30 61
e 30 64
e 30 72
e 30 74
e 30 78
e 30 81
e 30 82
e 30 83
e 30 86
e 30 88
e 30 90
e 30 91
e 30 94
e 30 96
e 30 99
e 31 32
e 31 33
e 31 38
e 31 39
e 31 40
e 31 45
e 31 46
e 31 48
e 31 50
e 31 52
e 31 54
e 31 59
e 31 61
e 31 64
e 31 66
e 31 68
e 31 74
e 31 76
e 31 77
e 31 78
e 31 80
e 31 82
e 31 83
e 31 85
e 31 86
e 31 89
e 31 90
e 31 92
e 31 94
e 31 95
e 31 96
e 31 99
e 32 33
e 32 38
e 32 39
e 32 40
e 32 44
e 32 46
e 32 51
e 32 54
e 32 55
e 32 56
e 32 57
e 32 59
e 32 62
e 32 64
e 32 67
e 32 72
e 32 73
e 32 74
e 32 79
e 32 81
e 32 82
e 32 85
e 32 89
e 32 93
e 32 94
e 32 98
e 33 35
e 33 43
e 33 44
e 33 46
e 33 48
e 33 52
e 33 55
e 33 62
e 33 64
e 33 68
e 33 69
e 33 72
e 33 77
e 33 82
e 33 84
e 33 85
e 33 88
e 33 89
e 33 90
e 33 92
e 33 95
e 33 100
e 34 46
e 34 49
e 34 50
e 34 53
e 34 56
e 34 59
e 34 60
e 34 64
e 34 65
e 34 70
e 34 71
e 34 73
e 34 77
e 34 78
e 34 79
e 34 88
e 34 89
e 34 91
e 34 92
e 34 93
e 34 94
e 34 99
e 35 37
e 35 39
e 35 40
e 35 41
e 35 45
e 35 49
e 35 52
e 35 55
e 35 56
e 35 57
e 35 59
e 35 61
e 35 62
e 35 65
e 35 66
e 35 67
e 35 70
e 35 72
e 35 73
e 35 76
e 35 77
e 35 86
e 35 87
e 35 89
e 35 92
e 35 98
e 35 99
e 36 37
e 36 38
e 36 39
e 36 42
e 36 44
e 36 46
e 36 48
e 36 49
e 36 51
e 36 52
e 36 56
e 36 57
e 36 58
e 36 60
e 36 61
e 36 62
e 36 64
e 36 68
e 36 69
e 36 71
e 36 72
e 36 78
e 36 80
e 36 85
e 36 87
e 36 91
e 36 93
e 36 94
e 36 96
e 36 97
e 37 46
e 37 48
e 37 49
e 37 52
e 37 54
e 37 56
e 37 57
e 37 61
e 37 62
e 37 72
e 37 74
e 37 77
e 37 78
e 37 80
e 37 81
e 37 82
e 37 84
e 37 86
e 37 88
e 37 91
e 37 93
e 37 95
e 37 97
e 37 98
e 37 100
e 38 40
e 38 42
e 38 45
e 38 47
e 38 48
e 38 51
e 38 52
e 38 53
e 38 58
e 38 60
e 38 61
e 38 62
e 38 64
e 38 65
e 38 66
e 38 67
e 38 73
e 38 75
e 38 76
e 38 78
e 38 80
e 38 81
e 38 82
e 38 83
e 38 84
e 38 85
e 38 88
e 38 91
e 38 92
e 38 94
e 38 95
e 38 98
e 38 100
e 39 40
e 39 45
e 39 46
e 39 48
e 39 53
e 39 54
e 39 55
e 39 57
e 39 58
e 39 61
e 39 63
e 39 68
e 39 72
e 39 75
e 39 76
e 39 80
e 39 81
e 39 84
e 39 85
e 39 87
e 39 94
e 39 99
e 40 41
e 40 43
e 40 49
e 40 50
e 40 54
e 40 57
e 40 58
e 40 60
e 40 63
e 40 65
e 40 67
e 40 70
e 40 71
e 40 73
e 40 74
e 40 79
e 40 81
e 40 82
e 40 92
e 40 93
e 40 94
e 40 96
e 41 42
e 41 44
e 41 45
e 41 46
e 41 50
e 41 55
e 41 63
e 41 66
e 41 69
e 41 70
e 41 72
e 41 77
e 41 83
e 41 84
e 41 86
e 41 92
e 41 94
e 41 95
e 41 96
e 41 98
e 41 99
e 42 43
e 42 44
e 42 46
e 42 47
e 42 49
e 42 53
e 42 55
e 42 56
e 42 58
e 42 60
e 42 65
e 42 66
e 42 68
e 42 73
e 42 76
e 42 78
e 42 79
e 42 82
e 42 83
e 42 84
e 42 85
e 42 87
e 42 90
e 42 91
e 42 93
e 42 98
e 42 99
e 42 100
e 43 46
e 43 50
e 43 51
e 43 52
e 43 53
e 43 55
e 43 59
e 43 60
e 43 62
e 43 63
e 43 66
e 43 67
e 43 69
e 43 71
e 43 75
e 43 77
e 43 80
e 43 86
e 43 87
e 43 89
e 43 90
e 43 91
e 43 92
e 43 97
e 43 98
e 43 99
e 43 100
e 44 46
e 44 54
e 44 56
e 44 62
e 44 63
e 44 64
e 44 68
e 44 69
e 44 70
e 44 71
e 44 75
e 44 84
e 44 90
e 44 92
e 44 94
e 44 98
e 44 99
e 45 48
e 45 51
e 45 53
e 45 54
e 45 63
e 45 64
e 45 65
e 45 68
e 45 69
e 45 71
e 45 72
e 45 73
e 45 77
e 45 79
e 45 81
e 45 82
e 45 90
e 45 93
e 45 95
e 45 97
e 45 98
e 46 47
e 46 49
e 46 51
e 46 52
e 46 56
e 46 62
e 46 64
e 46 66
e 46 68
e 46 69
e 46 70
e 46 72
e 46 77
e 46 78
e 46 79
e 46 80
e 46 86
e 46 87
e 46 91
e 46 93
e 46 98
e 46 99
e 47 49
e 47 53
e 47 56
e 47 58
e 47 59
e 47 60
e 47 63
e 47 64
e 47 66
e 47 69
e 47 71
e 47 72
e 47 74
e 47 76
e 47 77
e 47 79
e 47 81
e 47 83
e 47 85
e 47 89
e 47 90
e 47 94
e 47 97
e 47 98
e 47 99
e 48 50
e 48 51
e 48 56
e 48 63
e 48 64
e 48 68
e 48 70
e 48 77
e 48 78
e 48 79
e 48 84
e 48 87
e 48 88
e 48 91
e 48 97
e 48 98
e 49 51
e 49 55
e 49 58
e 49 60
e 49 63
e 49 67
e 49 71
e 49 73
e 49 75
e 49 77
e 49 83
e 49 85
e 49 87
e 49 88
e 49 90
e 49 93
e 49 94
e 49 95
e 49 96
e 49 98
e 49 100
e 50 52
e 50 54
e 50 57
e 50 58
e 50 62
e 50 63
e 50 65
e 50 66
e 50 70
e 50 72
e 50 73
e 50 76
e 50 77
e 50 84
e 50 86
e 50 88
e 50 89
e 50 90
e 50 91
e 50 92
e 50 93
e 50 94
e 50 95
e 50 98
e 50 99
e 50 100
e 51 52
e 51 55
e 51 58
e 51 63
e 51 68
e 51 70
e 51 72
e 51 75
e 51 76
e 51 77
e 51 80
e 51 81
e 51 89
e 51 90
e 51 95
e 51 97
e 51 99
e 52 54
e 52 55
e 52 57
e 52 58
e 52 60
e 52 67
e 52 73
e 52 74
e 52 75
e 52 77
e 52 82
e 52 83
e 52 84
e 52 87
e 52 95
e 52 96
e 53 54
e 53 57
e 53 58
e 53 61
e 53 63
e 53 64
e 53 67
e 53 68
e 53 71
e 53 76
e 53 77
e 53 83
e 53 84
e 53 86
e 53 87
e 53 93
e 53 98
e 54 55
e 54 56
e 54 58
e 54 60
e 54 62
e 54 66
e 54 68
e 54 71
e 54 74
e 54 79
e 54 80
e 54 83
e 54 85
e 54 86
e 54 93
e 54 95
e 55 57
e 55 59
e 55 61
e 55 62
e 55 64
e 55 66
e 55 67
e 55 70
e 55 72
e 55 73
e 55 74
e 55 76
e 55 78
e 55 79
e 55 82
e 55 83
e 55 84
e 55 88
e 55 89
e 55 90
e 55 92
e 55 93
e 56 61
e 56 65
e 56 66
e 56 68
e 56 72
e 56 73
e 56 74
e 56 77
e 56 80
e 56 82
e 56 83
e 56 88
e 56 89
e 56 90
e 56 92
e 56 96
e 56 100
e 57 60
e 57 61
e 57 62
e 57 65
e 57 66
e 57 67
e 57 73
e 57 74
e 57 75
e 57 77
e 57 83
e 57 85
e 57 89
e 57 90
e 57 91
e 57 100
e 58 59
e 58 60
e 58 64
e 58 67
e 58 68
e 58 72
e 58 73
e 58 76
e 58 79
e 58 81
e 58 82
e 58 84
e 58 86
e 58 89
e 58 91
e 58 93
e 58 94
e 58 98
e 59 61
e 59 64
e 59 68
e 59 71
e 59 73
e 59 75
e 59 77
e 59 79
e 59 82
e 59 85
e 59 86
e 59 87
e 59 88
e 59 91
e 59 92
e 59 93
e 59 94
e 59 95
e 59 97
e 60 61
e 60 68
e 60 69
e 60 70
e 60 72
e 60 74
e 60 76
e 60 77
e 60 79
e 60 80
e 60 83
e 60 84
e 60 85
e 60 86
e 60 88
e 60 90
e 60 91
e 60 93
e 60 94
e 61 62
e 61 63
e 61 64
e 61 65
e 61 71
e 61 73
e 61 78
e 61 80
e 61 82
e 61 83
e 61 87
e 61 89
e 61 90
e 61 93
e 61 94
e 61 97
e 61 99
e 62 67
e 62 69
e 62 71
e 62 73
e 62 76
e 62 83
e 62 85
e 62 87
e 62 88
e 62 90
e 62 92
e 62 97
e 62 99
e 62 100
e 63 67
e 63 70
e 63 72
e 63 73
e 63 75
e 63 80
e 63 85
e 63 88
e 63 89
e 63 92
e 63 98
e 63 100
e 64 66
e 64 68
e 64 72
e 64 73
e 64 74
e 64 76
e 64 78
e 64 81
e 64 85
e 64 86
e 64 89
e 64 90
e 64 91
e 64 92
e 64 95
e 64 96
e 65 72
e 65 78
e 65 79
e 65 80
e 65 81
e 65 82
e 65 86
e 65 89
e 65 95
e 65 97
e 65 100
e 66 71
e 66 73
e 66 75
e 66 77
e 66 82
e 66 83
e 66 85
e 66 88
e 66 94
e 66 95
e 66 96
e 66 100
e 67 68
e 67 73
e 67 76
e 67 79
e 67 80
e 67 83
e 67 86
e 67 96
e 67 97
e 67 98
e 67 99
e 67 100
e 68 69
e 68 70
e 68 72
e 68 73
e 68 85
e 68 90
e 68 94
e 68 95
e 68 96
e 68 97
e 68 99
e 68 100
e 69 71
e 69 72
e 69 74
e 69 75
e 69 76
e 69 80
e 69 82
e 69 87
e 69 89
e 69 92
e 69 97
e 69 100
e 70 73
e 70 77
e 70 78
e 70 80
e 70 81
e 70 84
e 70 85
e 70 90
e 70 92
e 70 95
e 70 96
e 70 97
e 70 99
e 71 74
e 71 82
e 71 91
e 71 92
e 71 93
e 71 94
e 71 97
e 71 98
e 71 99
e 72 81
e 72 83
e 72 85
e 72 87
e 72 91
e 72 92
e 72 94
e 72 97
e 73 75
e 73 79
e 73 80
e 73 83
e 73 87
e 73 88
e 73 93
e 73 95
e 73 96
e 73 99
e 74 75
e 74 80
e 74 83
e 74 84
e 74 86
e 74 88
e 74 91
e 74 97
e 75 76
e 75 79
e 75 80
e 75 82
e 75 85
e 75 86
e 75 87
e 75 89
e 75 95
e 75 97
e 75 99
e 75 100
e 76 77
e 76 80
e 76 86
e 76 87
e 76 88
e 76 89
e 76 95
e 76 98
e 76 100
e 77 78
e 77 82
e 77 84
e 77 86
e 77 88
e 77 91
e 77 92
e 77 97
e 77 98
e 77 100
e 78 79
e 78 83
e 78 86
e 78 91
e 78 93
e 78 94
e 78 95
e 78 97
e 78 98
e 78 100
e 79 83
e 79 84
e 79 89
e 79 90
e 79 92
e 79 94
e 79 97
e 79 99
e 80 87
e 80 88
e 80 92
e 80 94
e 80 96
e 80 97
e 80 98
e 80 99
e 80 100
e 81 82
e 81 85
e 81 86
e 81 89
e 81 93
e 81 97
e 81 99
e 82 85
e 82 89
e 82 90
e 82 91
e 82 94
e 82 97
e 82 98
e 83 84
e 83 85
e 83 87
e 83 88
e 83 89
e 83 90
e 83 96
e 83 97
e 83 98
e 83 99
e 83 100
e 84 86
e 84 93
e 84 99
e 84 100
e 85 86
e 85 88
e 85 90
e 85 94
e 85 96
e 85 97
e 85 98
e 86 89
e 86 93
e 86 94
e 86 96
e 86 98
e 86 100
e 87 88
e 87 89
e 87 90
e 87 91
e 87 97
e 88 93
e 88 95
e 88 97
e 89 94
e 89 98
e 90 93
e 90 94
e 90 97
e 91 92
e 91 94
e 91 97
e 92 93
e 92 94
e 92 96
e 92 98
e 92 100
e 93 94
e 93 96
e 93 100
e 94 96
e 94 97
e 94 98
e 95 98
e 96 97
e 97 99
e 98 100
e 99 100